\* Diet_Problem *\
Minimize
Total_fat_intake_per_person: 10 Food_Ameriska_pica + 0.33 Food_Banana
 + 0.37 Food_Brokoli + 33 Food_Cokolada + 0.54 Food_Fizol + 20 Food_Govedina
 + 0.17 Food_Jabolko + 0.3 Food_Jagode + 10.61 Food_Jajce + 13.7 Food_Kakav
 + 4.3 Food_Kokice + 0.24 Food_Korenje + 0.1 Food_Krompir + 3.64 Food_Kruh_bel
 + 3.35 Food_Kruh_polnozrnat + 0.16 Food_Kumara + 5.34 Food_Losos
 + 0.93 Food_Makaroni + 81.11 Food_Maslo + 3.25 Food_Mleko
 + 25.39 Food_Mortadela + 31.6 Food_Nutella + 100 Food_Olivno_olje
 + 6.1 Food_Ovseni_kosmici + 0.21 Food_Paprika + 0.2 Food_Paradiznik
 + 1.65 Food_Piscanec + 0.12 Food_Pomaranca + 12 Food_Pomfri
 + 6.61 Food_Postrv + 1.56 Food_Puran + 0.21 Food_Riz + 27.8 Food_Sir_edamec
 + 25.1 Food_Skusa_soljena + 0.2 Food_Solata + 0.12 Food_Strocji_fizol
 + 17.99 Food_Svinjina + 16 Food_Torta + 6 Food_Tuna + 0.1 Food_Zelje
Subject To
CalciumRequirement: 303 Food_Ameriska_pica + 5 Food_Banana + 47 Food_Brokoli
 + 220 Food_Cokolada + 27 Food_Fizol + 18 Food_Govedina + 10 Food_Grozdje
 + 6 Food_Jabolko + 16 Food_Jagode + 50 Food_Jajce + 128 Food_Kakav
 + 33 Food_Korenje + 12 Food_Krompir + 142 Food_Kruh_bel
 + 107 Food_Kruh_polnozrnat + 14 Food_Kumara + 12 Food_Losos + 7 Food_Makaroni
 + 38 Food_Marmelada + 24 Food_Maslo + 6 Food_Med + 113 Food_Mleko
 + 18 Food_Mortadela + 40 Food_Nutella + Food_Olivno_olje
 + 54 Food_Ovseni_kosmici + 11 Food_Paprika + 10 Food_Paradiznik
 + 12 Food_Piscanec + 4 Food_Pivo + 40 Food_Pomaranca + 5 Food_Pomfri
 + 43 Food_Postrv + 12 Food_Puran + 20 Food_Radenska + 16 Food_Rdeca_pesa
 + 3 Food_Riz + 731 Food_Sir_edamec + 66 Food_Skusa_soljena + 24 Food_Sol
 + 52 Food_Solata + 37 Food_Strocji_fizol + 15 Food_Svinjina + 116 Food_Torta
 + 10 Food_Tuna + 40 Food_Zelje >= 1000
CarbohydrateRequirement: 33 Food_Ameriska_pica + 22.84 Food_Banana
 + 6.64 Food_Brokoli + 55 Food_Cokolada + 23.71 Food_Fizol + 18 Food_Grozdje
 + 13.81 Food_Jabolko + 7.68 Food_Jagode + 1.12 Food_Jajce + 54.3 Food_Kakav
 + 74 Food_Kokice + 9.58 Food_Korenje + 17.47 Food_Krompir
 + 47.51 Food_Kruh_bel + 41.29 Food_Kruh_polnozrnat + 2.16 Food_Kumara
 + 30.86 Food_Makaroni + 66 Food_Marmelada + 0.06 Food_Maslo + 82.4 Food_Med
 + 4.52 Food_Mleko + 3.05 Food_Mortadela + 57.6 Food_Nutella
 + 64 Food_Ovseni_kosmici + 6.32 Food_Paprika + 3.92 Food_Paradiznik
 + 3.55 Food_Pivo + 11.75 Food_Pomaranca + 21.55 Food_Pomfri
 + 8 Food_Rdeca_pesa + 28.59 Food_Riz + 1.43 Food_Sir_edamec
 + 3.35 Food_Solata + 7.13 Food_Strocji_fizol + 60 Food_Torta
 + 2.6 Food_Vino_cabernet + 2.6 Food_Vino_traminec + 5.8 Food_Zelje >= 310
EnergyRequirement: 266 Food_Ameriska_pica + 89 Food_Banana + 34 Food_Brokoli
 + 563 Food_Cokolada + 132 Food_Fizol + 254 Food_Govedina + 69 Food_Grozdje
 + 52 Food_Jabolko + 32 Food_Jagode + 155 Food_Jajce + 229 Food_Kakav
 + 375 Food_Kokice + 41 Food_Korenje + 87 Food_Krompir + 266 Food_Kruh_bel
 + 247 Food_Kruh_polnozrnat + 12 Food_Kumara + 142 Food_Losos
 + 158 Food_Makaroni + 245 Food_Marmelada + 717 Food_Maslo + 304 Food_Med
 + 60 Food_Mleko + 311 Food_Mortadela + 546 Food_Nutella
 + 884 Food_Olivno_olje + 369 Food_Ovseni_kosmici + 27 Food_Paprika
 + 18 Food_Paradiznik + 114 Food_Piscanec + 43 Food_Pivo + 47 Food_Pomaranca
 + 93 Food_Pomfri + 148 Food_Postrv + 115 Food_Puran + 37 Food_Rdeca_pesa
 + 130 Food_Riz + 357 Food_Sir_edamec + 305 Food_Skusa_soljena
 + 17 Food_Solata + 31 Food_Strocji_fizol + 236 Food_Svinjina + 399 Food_Torta
 + 184 Food_Tuna + 84 Food_Vino_cabernet + 82 Food_Vino_traminec
 + 25 Food_Zelje >= 2000
IronRequirement: 0.77 Food_Ameriska_pica + 0.26 Food_Banana
 + 0.73 Food_Brokoli + 4 Food_Cokolada + 2.1 Food_Fizol + 1.94 Food_Govedina
 + 0.4 Food_Grozdje + 0.12 Food_Jabolko + 0.41 Food_Jagode + 1.19 Food_Jajce
 + 13.86 Food_Kakav + 2.88 Food_Kokice + 0.3 Food_Korenje + 0.78 Food_Krompir
 + 3.46 Food_Kruh_bel + 2.43 Food_Kruh_polnozrnat + 0.22 Food_Kumara
 + 0.8 Food_Losos + 1.28 Food_Makaroni + 0.15 Food_Marmelada + 0.02 Food_Maslo
 + 0.42 Food_Med + 0.03 Food_Mleko + 1.4 Food_Mortadela + 0.72 Food_Nutella
 + 0.56 Food_Olivno_olje + 4.7 Food_Ovseni_kosmici + 0.46 Food_Paprika
 + 0.27 Food_Paradiznik + 0.73 Food_Piscanec + 0.02 Food_Pivo
 + 0.1 Food_Pomaranca + 0.35 Food_Pomfri + 1.5 Food_Postrv + 1.19 Food_Puran
 + 0.1 Food_Radenska + 0.79 Food_Rdeca_pesa + 1.49 Food_Riz
 + 0.44 Food_Sir_edamec + 1.4 Food_Skusa_soljena + 0.3 Food_Sol
 + 0.83 Food_Solata + 1.04 Food_Strocji_fizol + 1.05 Food_Svinjina
 + 3.6 Food_Torta + 1.3 Food_Tuna + 0.47 Food_Zelje >= 18
PotassiumRequirement: 234 Food_Ameriska_pica + 358 Food_Banana
 + 316 Food_Brokoli + 559 Food_Cokolada + 355 Food_Fizol + 295 Food_Govedina
 + 191 Food_Grozdje + 107 Food_Jabolko + 153 Food_Jagode + 126 Food_Jajce
 + 1524 Food_Kakav + 274 Food_Kokice + 320 Food_Korenje + 421 Food_Krompir
 + 184 Food_Kruh_bel + 248 Food_Kruh_polnozrnat + 136 Food_Kumara
 + 490 Food_Losos + 44 Food_Makaroni + 37 Food_Marmelada + 24 Food_Maslo
 + 52 Food_Med + 113 Food_Mleko + 163 Food_Mortadela + 550 Food_Nutella
 + Food_Olivno_olje + 354 Food_Ovseni_kosmici + 212 Food_Paprika
 + 237 Food_Paradiznik + 239 Food_Piscanec + 27 Food_Pivo + 181 Food_Pomaranca
 + 391 Food_Pomfri + 361 Food_Postrv + 305 Food_Puran + 8 Food_Radenska
 + 325 Food_Rdeca_pesa + 29 Food_Riz + 188 Food_Sir_edamec
 + 520 Food_Skusa_soljena + 8 Food_Sol + 194 Food_Solata
 + 209 Food_Strocji_fizol + 302 Food_Svinjina + 140 Food_Torta + 323 Food_Tuna
 + 170 Food_Zelje >= 3500
ProteinRequirement: 11 Food_Ameriska_pica + 1.09 Food_Banana
 + 2.82 Food_Brokoli + 9 Food_Cokolada + 8.86 Food_Fizol + 17.17 Food_Govedina
 + Food_Grozdje + 0.26 Food_Jabolko + 0.67 Food_Jagode + 12.58 Food_Jajce
 + 19.6 Food_Kakav + 11 Food_Kokice + 0.93 Food_Korenje + 2.1 Food_Krompir
 + 10.91 Food_Kruh_bel + 12.95 Food_Kruh_polnozrnat + 0.49 Food_Kumara
 + 19.84 Food_Losos + 5.8 Food_Makaroni + 0.3 Food_Marmelada + 0.85 Food_Maslo
 + 0.3 Food_Med + 3.22 Food_Mleko + 16.37 Food_Mortadela + 6 Food_Nutella
 + 15.5 Food_Ovseni_kosmici + Food_Paprika + 0.88 Food_Paradiznik
 + 23.2 Food_Piscanec + 0.46 Food_Pivo + 0.94 Food_Pomaranca
 + 1.96 Food_Pomfri + 20.77 Food_Postrv + 23.56 Food_Puran + 2 Food_Rdeca_pesa
 + 2.38 Food_Riz + 24.99 Food_Sir_edamec + 18.5 Food_Skusa_soljena
 + 1.25 Food_Solata + 1.82 Food_Strocji_fizol + 17.18 Food_Svinjina
 + 4 Food_Torta + 30 Food_Tuna + 0.07 Food_Vino_cabernet
 + 0.07 Food_Vino_traminec + 1.28 Food_Zelje >= 50
SodiumLowerBound: 582 Food_Ameriska_pica + Food_Banana + 33 Food_Brokoli
 + 24 Food_Cokolada + Food_Fizol + 66 Food_Govedina + 2 Food_Grozdje
 + Food_Jabolko + Food_Jagode + 124 Food_Jajce + 21 Food_Kakav
 + 74 Food_Kokice + 69 Food_Korenje + 6 Food_Krompir + 521 Food_Kruh_bel
 + 472 Food_Kruh_polnozrnat + 2 Food_Kumara + 44 Food_Losos + Food_Makaroni
 + 56 Food_Marmelada + 11 Food_Maslo + 4 Food_Med + 40 Food_Mleko
 + 1246 Food_Mortadela + 40.6 Food_Nutella + 2 Food_Olivno_olje
 + 286 Food_Ovseni_kosmici + 2 Food_Paprika + 5 Food_Paradiznik
 + 68 Food_Piscanec + 4 Food_Pivo + 241 Food_Pomfri + 52 Food_Postrv
 + 63 Food_Puran + 44 Food_Radenska + 78 Food_Rdeca_pesa + 965 Food_Sir_edamec
 + 4450 Food_Skusa_soljena + 38758 Food_Sol + 28 Food_Solata
 + 6 Food_Strocji_fizol + 65 Food_Svinjina + 315 Food_Torta + 50 Food_Tuna
 + 18 Food_Zelje >= 500
SodiumUpperBound: 582 Food_Ameriska_pica + Food_Banana + 33 Food_Brokoli
 + 24 Food_Cokolada + Food_Fizol + 66 Food_Govedina + 2 Food_Grozdje
 + Food_Jabolko + Food_Jagode + 124 Food_Jajce + 21 Food_Kakav
 + 74 Food_Kokice + 69 Food_Korenje + 6 Food_Krompir + 521 Food_Kruh_bel
 + 472 Food_Kruh_polnozrnat + 2 Food_Kumara + 44 Food_Losos + Food_Makaroni
 + 56 Food_Marmelada + 11 Food_Maslo + 4 Food_Med + 40 Food_Mleko
 + 1246 Food_Mortadela + 40.6 Food_Nutella + 2 Food_Olivno_olje
 + 286 Food_Ovseni_kosmici + 2 Food_Paprika + 5 Food_Paradiznik
 + 68 Food_Piscanec + 4 Food_Pivo + 241 Food_Pomfri + 52 Food_Postrv
 + 63 Food_Puran + 44 Food_Radenska + 78 Food_Rdeca_pesa + 965 Food_Sir_edamec
 + 4450 Food_Skusa_soljena + 38758 Food_Sol + 28 Food_Solata
 + 6 Food_Strocji_fizol + 65 Food_Svinjina + 315 Food_Torta + 50 Food_Tuna
 + 18 Food_Zelje <= 2400
VitCRequirement: 2 Food_Ameriska_pica + 8.7 Food_Banana + 89.2 Food_Brokoli
 + 3.6 Food_Grozdje + 4.6 Food_Jabolko + 58.8 Food_Jagode + 5.9 Food_Korenje
 + 19.7 Food_Krompir + 0.2 Food_Kruh_bel + 3.2 Food_Kumara
 + 4.8 Food_Marmelada + 0.5 Food_Med + 183.5 Food_Paprika
 + 12.7 Food_Paradiznik + 53.2 Food_Pomaranca + 12.8 Food_Pomfri
 + 0.5 Food_Postrv + 4.8 Food_Rdeca_pesa + 9 Food_Solata
 + 16.3 Food_Strocji_fizol + 0.7 Food_Svinjina + 36.6 Food_Zelje >= 60
End
